10
90.0
0 1 6.0 9.0
0 2 8.0 9.0
0 3 8.0 5.0
0 4 3.0 5.0
0 5 5.0 9.0
0 6 2.0 9.0
0 7 6.0 4.0
0 8 9.0 2.0
0 9 1.0 6.0
1 2 5.0 7.0
1 3 4.0 4.0
1 4 6.0 2.0
1 5 3.0 8.0
1 6 8.0 5.0
1 7 3.0 2.0
1 8 6.0 4.0
1 9 1.0 6.0
2 3 8.0 6.0
2 4 3.0 2.0
2 5 1.0 4.0
2 6 2.0 1.0
2 7 5.0 5.0
2 8 4.0 1.0
2 9 2.0 5.0
3 4 3.0 8.0
3 5 6.0 3.0
3 6 4.0 4.0
3 7 4.0 4.0
3 8 5.0 9.0
3 9 7.0 3.0
4 5 7.0 3.0
4 6 4.0 5.0
4 7 4.0 3.0
4 8 2.0 5.0
4 9 3.0 4.0
5 6 5.0 6.0
5 7 2.0 4.0
5 8 7.0 2.0
5 9 4.0 3.0
6 7 4.0 5.0
6 8 4.0 8.0
6 9 7.0 9.0
7 8 4.0 0.0
7 9 1.0 4.0
8 9 6.0 2.0